Na F  Na F  Na F  Na F 
 1.0000000000000000
     4.5609155608264400   -0.0000000000000000   -0.0000000000000000
    -0.0000000000000000    4.5609155608264400   -0.0000000000000000
    -0.0000000000000000   -0.0000000000000000    4.5609155608264400
 Na  F   Na  F   Na  F   Na  F  
   1   1   1   1   1   1   1   1
Direct
  0.0000000000000000  0.0000000000000000  0.0000000000000000
  0.5000000000000000  0.0000000000000000  0.0000000000000000
 -0.0000000000000000  0.5000000000000000  0.5000000000000000
  0.5000000000000000  0.5000000000000000  0.5000000000000000
  0.5000000000000000  0.0000000000000000  0.5000000000000000
  0.0000000000000000  0.0000000000000000  0.5000000000000000
  0.5000000000000000  0.5000000000000000  0.0000000000000000
  0.0000000000000000  0.5000000000000000  0.0000000000000000
