Si
 1.0000000000000000
     5.4236702041370268    0.0000000000000000    0.0000000000000000
    -0.0000000000000000    5.4236702041370268    0.0000000000000000
     0.0000000000000000   -0.0000000000000000    5.4236702041370268
 Si 
   8
Direct
 -0.0000000000000000 -0.0000000000000000 -0.0000000000000000
  0.2500000000000000  0.2499999999999999  0.2499999999999999
 -0.0000000000000000  0.4999999999999999  0.4999999999999999
  0.2500000000000000  0.7500000000000000  0.7500000000000000
  0.4999999999999999 -0.0000000000000000  0.4999999999999999
  0.7500000000000000  0.2499999999999999  0.7500000000000000
  0.4999999999999999  0.4999999999999999 -0.0000000000000000
  0.7500000000000000  0.7500000000000000  0.2499999999999999
