Si
 1.0000000000000000
     5.4607721684339294    0.0000000000000000   -0.0000000000000000
    -0.0000000000000000    5.4607721684339294   -0.0000000000000000
     0.0000000000000000   -0.0000000000000000    5.4607721684339294
 Si 
   8
Direct
  0.0000000000000000  0.0000000000000000 -0.0000000000000000
  0.2500000000000000  0.2499999999999999  0.2499999999999999
  0.0000000000000000  0.5000000000000000  0.5000000000000000
  0.2500000000000000  0.7499999999999999  0.7499999999999999
  0.5000000000000000  0.0000000000000000  0.5000000000000000
  0.7499999999999999  0.2499999999999999  0.7499999999999999
  0.5000000000000000  0.5000000000000000 -0.0000000000000000
  0.7499999999999999  0.7499999999999999  0.2499999999999999
