Si C  Si C  Si C  Si C 
 1.0000000000000000
     4.3479999999999999    0.0000000000000000    0.0000000000000000
     0.0000000000000000    4.3479999999999999    0.0000000000000000
     0.0000000000000000    0.0000000000000000    4.3479999999999999
 Si  C   Si  C   Si  C   Si  C  
   1   1   1   1   1   1   1   1
Direct
  0.0000000000000000  0.0000000000000000  0.0000000000000000
  0.2500000000000000  0.2500000000000000  0.2500000000000000
  0.0000000000000000  0.5000000000000000  0.5000000000000000
  0.2500000000000000  0.7500000000000000  0.7500000000000000
  0.5000000000000000  0.0000000000000000  0.5000000000000000
  0.7500000000000000  0.2500000000000000  0.7500000000000000
  0.5000000000000000  0.5000000000000000  0.0000000000000000
  0.7500000000000000  0.7500000000000000  0.2500000000000000
