Al O 
 1.0000000000000000
     4.8111245524553503   -0.0000000000000000    0.0000000000000002
    -2.4055622762276747    4.1665560831973725    0.0000000000000003
    -0.0000000000000005    0.0000000000000017   13.0979791430496952
 Al  O  
  12  18
Direct
 -0.0000000000000000 -0.0000000000000000  0.3526656612229987
 -0.0000000000000000 -0.0000000000000000  0.1473343387770015
  0.6666666666666665  0.3333333333333332  0.6859989945563320
  0.6666666666666664  0.3333333333333332  0.4806676721103351
  0.3333333333333333  0.6666666666666666  0.0193323278896653
  0.3333333333333334  0.6666666666666665  0.8140010054436687
  0.0000000000000000  0.0000000000000000  0.6473343387770017
  0.0000000000000001 -0.0000000000000001  0.8526656612229987
  0.6666666666666666  0.3333333333333334  0.9806676721103350
  0.6666666666666665  0.3333333333333333  0.1859989945563320
  0.3333333333333333  0.6666666666666666  0.3140010054436682
  0.3333333333333334  0.6666666666666666  0.5193323278896654
  0.3063765359576153 -0.0000000000000000  0.2500000000000002
 -0.0000000000000000  0.3063765359576154  0.2500000000000002
  0.6936234640423850  0.6936234640423847  0.2500000000000002
  0.9730432026242821  0.3333333333333332  0.5833333333333336
  0.6666666666666669  0.6397098692909486  0.5833333333333336
  0.3602901307090512  0.0269567973757180  0.5833333333333335
  0.6397098692909490  0.6666666666666665  0.9166666666666671
  0.3333333333333334  0.9730432026242818  0.9166666666666671
  0.0269567973757182  0.3602901307090513  0.9166666666666671
  0.6936234640423845 -0.0000000000000001  0.7500000000000001
  0.0000000000000004  0.6936234640423847  0.7500000000000001
  0.3063765359576154  0.3063765359576153  0.7500000000000001
  0.3602901307090513  0.3333333333333333  0.0833333333333334
  0.6666666666666667  0.0269567973757180  0.0833333333333334
  0.9730432026242820  0.6397098692909486  0.0833333333333334
  0.0269567973757181  0.6666666666666664  0.4166666666666669
  0.3333333333333334  0.3602901307090513  0.4166666666666668
  0.6397098692909486  0.9730432026242820  0.4166666666666669
