Al O 
 1.0000000000000000
     4.7862819167228308   -0.0000000000000000    0.0000000000000001
    -2.3931409583614149    4.1450417295560484    0.0000000000000003
    -0.0000000000000005    0.0000000000000015   13.0819635264976917
 Al  O  
  12  18
Direct
 -0.0000000000000000 -0.0000000000000000  0.3522656833852525
 -0.0000000000000000 -0.0000000000000000  0.1477343166147480
  0.6666666666666664  0.3333333333333331  0.6855990167185860
  0.6666666666666664  0.3333333333333333  0.4810676499480813
  0.3333333333333333  0.6666666666666666  0.0189323500519189
  0.3333333333333334  0.6666666666666665  0.8144009832814150
  0.0000000000000000  0.0000000000000000  0.6477343166147479
  0.0000000000000001 -0.0000000000000001  0.8522656833852525
  0.6666666666666664  0.3333333333333333  0.9810676499480816
  0.6666666666666664  0.3333333333333333  0.1855990167185857
  0.3333333333333333  0.6666666666666666  0.3144009832814147
  0.3333333333333334  0.6666666666666665  0.5189323500519193
  0.3064281102282900 -0.0000000000000000  0.2500000000000002
 -0.0000000000000001  0.3064281102282900  0.2500000000000002
  0.6935718897717100  0.6935718897717099  0.2500000000000002
  0.9730947768949567  0.3333333333333332  0.5833333333333336
  0.6666666666666666  0.6397614435616230  0.5833333333333336
  0.3602385564383764  0.0269052231050433  0.5833333333333336
  0.6397614435616237  0.6666666666666665  0.9166666666666673
  0.3333333333333330  0.9730947768949556  0.9166666666666673
  0.0269052231050435  0.3602385564383766  0.9166666666666673
  0.6935718897717095 -0.0000000000000001  0.7500000000000007
  0.0000000000000005  0.6935718897717099  0.7500000000000007
  0.3064281102282900  0.3064281102282899  0.7500000000000007
  0.3602385564383766  0.3333333333333333  0.0833333333333334
  0.6666666666666662  0.0269052231050433  0.0833333333333334
  0.9730947768949562  0.6397614435616231  0.0833333333333334
  0.0269052231050436  0.6666666666666665  0.4166666666666670
  0.3333333333333335  0.3602385564383767  0.4166666666666670
  0.6397614435616230  0.9730947768949558  0.4166666666666670
