Al N  Al N 
 1.0000000000000000
     3.1321567014984764   -0.0000000000000000    0.0000000000000000
    -1.5660783507492382    2.7125272721313540   -0.0000000000000000
    -0.0000000000000000   -0.0000000000000000    5.0079636980455549
 Al  N   Al  N  
   1   1   1   1
Direct
  0.0000000000000000 -0.0000000000000000 -0.0000723416799116
  0.3333333333333333  0.6666666666666667  0.1180723416799124
  0.3333333333333334  0.6666666666666667  0.4999276583200882
  0.0000000000000000  0.0000000000000000  0.6180723416799122
