Al N  Al N 
 1.0000000000000000
     3.1293035738214301   -0.0000000000000000    0.0000000000000000
    -1.5646517869107150    2.7100563910827913   -0.0000000000000000
    -0.0000000000000000    0.0000000000000000    5.0501220360597348
 Al  N   Al  N  
   1   1   1   1
Direct
 -0.0000000000000000 -0.0000000000000000 -0.0009388687688017
  0.3333333333333333  0.6666666666666667  0.1189388687688008
  0.3333333333333334  0.6666666666666667  0.4990611312311981
 -0.0000000000000000  0.0000000000000000  0.6189388687688010
