Al O 
 1.0000000000000000
     4.7825963471467112   -0.0000000000000000    0.0000000000000000
    -2.3912981735733552    4.1418499326757132    0.0000000000000000
    -0.0000000000000008    0.0000000000000006   13.0046226311279867
 Al  O  
  12  18
Direct
 -0.0000000000000000 -0.0000000000000000  0.3526452435258550
 -0.0000000000000000 -0.0000000000000000  0.1473547564741453
  0.6666666666666664  0.3333333333333332  0.6859785768591886
  0.6666666666666665  0.3333333333333333  0.4806880898074790
  0.3333333333333333  0.6666666666666666  0.0193119101925215
  0.3333333333333334  0.6666666666666665  0.8140214231408121
  0.0000000000000000  0.0000000000000000  0.6473547564741453
  0.0000000000000001 -0.0000000000000001  0.8526452435258548
  0.6666666666666665  0.3333333333333333  0.9806880898074785
  0.6666666666666665  0.3333333333333333  0.1859785768591882
  0.3333333333333334  0.6666666666666667  0.3140214231408121
  0.3333333333333334  0.6666666666666665  0.5193119101925214
  0.3065993475765386 -0.0000000000000000  0.2500000000000001
 -0.0000000000000001  0.3065993475765385  0.2500000000000001
  0.6934006524234618  0.6934006524234615  0.2500000000000001
  0.9732660142432054  0.3333333333333332  0.5833333333333336
  0.6666666666666671  0.6399326809098719  0.5833333333333336
  0.3600673190901281  0.0267339857567947  0.5833333333333336
  0.6399326809098723  0.6666666666666665  0.9166666666666670
  0.3333333333333334  0.9732660142432049  0.9166666666666670
  0.0267339857567950  0.3600673190901280  0.9166666666666670
  0.6934006524234614 -0.0000000000000001  0.7500000000000000
  0.0000000000000004  0.6934006524234614  0.7500000000000000
  0.3065993475765385  0.3065993475765383  0.7500000000000000
  0.3600673190901282  0.3333333333333333  0.0833333333333334
  0.6666666666666664  0.0267339857567948  0.0833333333333334
  0.9732660142432051  0.6399326809098720  0.0833333333333334
  0.0267339857567950  0.6666666666666665  0.4166666666666668
  0.3333333333333335  0.3600673190901281  0.4166666666666668
  0.6399326809098721  0.9732660142432051  0.4166666666666668
