Si C  Si C  Si C  Si C 
 1.0000000000000000
     4.3682571007269093   -0.0000000000000000   -0.0000000000000000
     0.0000000000000000    4.3682571007269093   -0.0000000000000000
    -0.0000000000000000    0.0000000000000000    4.3682571007269093
 Si  C   Si  C   Si  C   Si  C  
   1   1   1   1   1   1   1   1
Direct
 -0.0000000000000000  0.0000000000000000  0.0000000000000000
  0.2500000000000000  0.2500000000000001  0.2500000000000001
 -0.0000000000000000  0.5000000000000000  0.5000000000000000
  0.2500000000000000  0.7500000000000000  0.7500000000000000
  0.5000000000000000  0.0000000000000000  0.5000000000000000
  0.7500000000000000  0.2500000000000001  0.7500000000000000
  0.5000000000000000  0.5000000000000000  0.0000000000000000
  0.7500000000000000  0.7500000000000000  0.2500000000000001
