Mg O  Mg O  Mg O  Mg O 
 1.0000000000000000
     4.2081173964868812   -0.0000000000000000    0.0000000000000000
    -0.0000000000000000    4.2081173964868812    0.0000000000000000
     0.0000000000000000   -0.0000000000000000    4.2081173964868812
 Mg  O   Mg  O   Mg  O   Mg  O  
   1   1   1   1   1   1   1   1
Direct
  0.0000000000000000  0.0000000000000000  0.0000000000000000
  0.5000000000000000  0.0000000000000000  0.0000000000000000
  0.0000000000000000  0.5000000000000000  0.5000000000000000
  0.5000000000000000  0.5000000000000000  0.5000000000000000
  0.5000000000000000  0.0000000000000000  0.5000000000000000
  0.0000000000000000  0.0000000000000000  0.5000000000000000
  0.5000000000000000  0.5000000000000000 -0.0000000000000000
  0.0000000000000000  0.5000000000000000 -0.0000000000000000
