Si
 1.0000000000000000
     5.4394589053358313   -0.0000000000000000    0.0000000000000000
     0.0000000000000000    5.4394589053358313   -0.0000000000000000
    -0.0000000000000000    0.0000000000000000    5.4394589053358313
 Si 
   8
Direct
  0.0000000000000000  0.0000000000000000  0.0000000000000000
  0.2500000000000000  0.2500000000000000  0.2500000000000000
  0.0000000000000000  0.5000000000000000  0.5000000000000000
  0.2500000000000000  0.7500000000000000  0.7500000000000000
  0.5000000000000000  0.0000000000000000  0.5000000000000000
  0.7500000000000000  0.2500000000000000  0.7500000000000000
  0.5000000000000000  0.5000000000000000 -0.0000000000000000
  0.7500000000000000  0.7500000000000000  0.2500000000000000
