Al N  Al N 
 1.0000000000000000
     3.1048015571325021    0.0000000000000000   -0.0000000000000000
    -1.5524007785662510    2.6888370221862288    0.0000000000000000
     0.0000000000000000   -0.0000000000000000    4.9628736593508638
 Al  N   Al  N  
   1   1   1   1
Direct
  0.0000000000000000 -0.0000000000000000  0.0000688161507895
  0.3333333333333332  0.6666666666666666  0.1179311838492082
  0.3333333333333333  0.6666666666666666  0.5000688161507896
 -0.0000000000000000 -0.0000000000000000  0.6179311838492081
