Al N  Al N 
 1.0000000000000000
     3.1085513172946957   -0.0000000000000000    0.0000000000000000
    -1.5542756586473478    2.6920844097447874    0.0000000000000000
    -0.0000000000000000   -0.0000000000000000    4.9946638710297719
 Al  N   Al  N  
   1   1   1   1
Direct
 -0.0000000000000000 -0.0000000000000000 -0.0005812353001832
  0.3333333333333333  0.6666666666666669  0.1185812353001828
  0.3333333333333335  0.6666666666666669  0.4994187646998168
 -0.0000000000000000 -0.0000000000000000  0.6185812353001829
