Al N  Al N 
 1.0000000000000000
     3.1211962453241267   -0.0000000000000000    0.0000000000000000
    -1.5605981226620633    2.7030352386473000   -0.0000000000000000
    -0.0000000000000000    0.0000000000000000    5.0190328209082056
 Al  N   Al  N  
   1   1   1   1
Direct
  0.0000000000000000  0.0000000000000000 -0.0004942936593674
  0.3333333333333333  0.6666666666666667  0.1184942936593660
  0.3333333333333335  0.6666666666666667  0.4995057063406327
  0.0000000000000000  0.0000000000000000  0.6184942936593660
