Al O 
 1.0000000000000000
     4.7895201465734694    0.0000000000000000    0.0000000000000002
    -2.3947600732867342    4.1478461188699915    0.0000000000000003
    -0.0000000000000005    0.0000000000000017   13.1002390722305808
 Al  O  
  12  18
Direct
 -0.0000000000000000 -0.0000000000000000  0.3518191578740970
 -0.0000000000000000 -0.0000000000000000  0.1481808421259031
  0.6666666666666665  0.3333333333333333  0.6851524912074305
  0.6666666666666664  0.3333333333333333  0.4815141754592365
  0.3333333333333333  0.6666666666666667  0.0184858245407637
  0.3333333333333334  0.6666666666666666  0.8148475087925697
  0.0000000000000000  0.0000000000000000  0.6481808421259028
  0.0000000000000001 -0.0000000000000001  0.8518191578740971
  0.6666666666666665  0.3333333333333333  0.9815141754592359
  0.6666666666666665  0.3333333333333333  0.1851524912074305
  0.3333333333333333  0.6666666666666667  0.3148475087925697
  0.3333333333333334  0.6666666666666666  0.5184858245407636
  0.3066017515075806 -0.0000000000000000  0.2500000000000001
 -0.0000000000000001  0.3066017515075806  0.2500000000000001
  0.6933982484924195  0.6933982484924194  0.2500000000000001
  0.9732684181742471  0.3333333333333333  0.5833333333333333
  0.6666666666666670  0.6399350848409143  0.5833333333333333
  0.3600649151590858  0.0267315818257526  0.5833333333333333
  0.6399350848409142  0.6666666666666665  0.9166666666666667
  0.3333333333333335  0.9732684181742475  0.9166666666666667
  0.0267315818257529  0.3600649151590860  0.9166666666666666
  0.6933982484924190 -0.0000000000000001  0.7499999999999999
  0.0000000000000004  0.6933982484924194  0.7499999999999999
  0.3066017515075806  0.3066017515075805  0.7499999999999999
  0.3600649151590861  0.3333333333333333  0.0833333333333334
  0.6666666666666664  0.0267315818257527  0.0833333333333334
  0.9732684181742474  0.6399350848409144  0.0833333333333334
  0.0267315818257529  0.6666666666666666  0.4166666666666667
  0.3333333333333335  0.3600649151590861  0.4166666666666667
  0.6399350848409141  0.9732684181742475  0.4166666666666668
