Al O 
 1.0000000000000000
     4.7568926462832275    0.0000000000000000   -0.0000000000000001
    -2.3784463231416133    4.1195898747566551   -0.0000000000000001
    -0.0000000000000011   -0.0000000000000001   12.9522149946657343
 Al  O  
  12  18
Direct
 -0.0000000000000000 -0.0000000000000000  0.3519931049704064
 -0.0000000000000000 -0.0000000000000000  0.1480068950295935
  0.6666666666666669  0.3333333333333336  0.6853264383037397
  0.6666666666666669  0.3333333333333336  0.4813402283629268
  0.3333333333333335  0.6666666666666672  0.0186597716370732
  0.3333333333333336  0.6666666666666672  0.8146735616962602
  0.0000000000000000  0.0000000000000000  0.6480068950295934
  0.0000000000000001 -0.0000000000000001  0.8519931049704065
  0.6666666666666670  0.3333333333333338  0.9813402283629264
  0.6666666666666669  0.3333333333333336  0.1853264383037398
  0.3333333333333335  0.6666666666666673  0.3146735616962600
  0.3333333333333336  0.6666666666666672  0.5186597716370731
  0.3061248208746465 -0.0000000000000000  0.2500000000000001
  0.0000000000000001  0.3061248208746468  0.2500000000000001
  0.6938751791253539  0.6938751791253541  0.2500000000000000
  0.9727914875413135  0.3333333333333336  0.5833333333333333
  0.6666666666666669  0.6394581542079799  0.5833333333333333
  0.3605418457920201  0.0272085124586868  0.5833333333333333
  0.6394581542079805  0.6666666666666672  0.9166666666666664
  0.3333333333333336  0.9727914875413136  0.9166666666666664
  0.0272085124586871  0.3605418457920204  0.9166666666666664
  0.6938751791253533 -0.0000000000000001  0.7500000000000000
  0.0000000000000007  0.6938751791253541  0.7500000000000000
  0.3061248208746468  0.3061248208746468  0.7500000000000000
  0.3605418457920203  0.3333333333333336  0.0833333333333333
  0.6666666666666662  0.0272085124586868  0.0833333333333333
  0.9727914875413128  0.6394581542079799  0.0833333333333334
  0.0272085124586872  0.6666666666666672  0.4166666666666666
  0.3333333333333335  0.3605418457920204  0.4166666666666666
  0.6394581542079801  0.9727914875413136  0.4166666666666666
