Al N  Al N 
 1.0000000000000000
     3.1268204071654657   -0.0000000000000000    0.0000000000000000
    -1.5634102035827329    2.7079059056768959   -0.0000000000000000
     0.0000000000000000    0.0000000000000000    5.0067087781947430
 Al  N   Al  N  
   1   1   1   1
Direct
 -0.0000000000000000 -0.0000000000000000 -0.0002959034273531
  0.3333333333333332  0.6666666666666667  0.1182959034273533
  0.3333333333333334  0.6666666666666667  0.4997040965726470
 -0.0000000000000000 -0.0000000000000000  0.6182959034273531
