Si C  Si C  Si C  Si C 
 1.0000000000000000
     4.3613979226164750   -0.0000000000000000    0.0000000000000000
     0.0000000000000000    4.3613979226164750    0.0000000000000000
     0.0000000000000000    0.0000000000000000    4.3613979226164750
 Si  C   Si  C   Si  C   Si  C  
   1   1   1   1   1   1   1   1
Direct
  0.0000000000000000  0.0000000000000000  0.0000000000000000
  0.2500000000000000  0.2500000000000001  0.2500000000000001
  0.0000000000000000  0.5000000000000000  0.5000000000000000
  0.2500000000000000  0.7499999999999999  0.7499999999999999
  0.5000000000000000  0.0000000000000000  0.5000000000000000
  0.7499999999999999  0.2500000000000001  0.7499999999999999
  0.5000000000000000  0.5000000000000000  0.0000000000000000
  0.7499999999999999  0.7499999999999999  0.2500000000000001
