Mg O  Mg O  Mg O  Mg O 
 1.0000000000000000
     4.1859608041062009   -0.0000000000000000   -0.0000000000000000
    -0.0000000000000000    4.1859608041062009    0.0000000000000000
    -0.0000000000000000    0.0000000000000000    4.1859608041062009
 Mg  O   Mg  O   Mg  O   Mg  O  
   1   1   1   1   1   1   1   1
Direct
  0.0000000000000000  0.0000000000000000  0.0000000000000000
  0.5000000000000000  0.0000000000000000  0.0000000000000000
  0.0000000000000000  0.5000000000000000  0.5000000000000000
  0.5000000000000000  0.5000000000000000  0.5000000000000000
  0.5000000000000000  0.0000000000000000  0.5000000000000000
  0.0000000000000000  0.0000000000000000  0.5000000000000000
  0.5000000000000000  0.5000000000000000  0.0000000000000000
  0.0000000000000000  0.5000000000000000  0.0000000000000000
