Al O 
 1.0000000000000000
     4.8062142975505973    0.0000000000000000    0.0000000000000002
    -2.4031071487752982    4.1623036777107973    0.0000000000000004
    -0.0000000000000003    0.0000000000000020   13.1316899527615387
 Al  O  
  12  18
Direct
 -0.0000000000000000 -0.0000000000000000  0.3521049830833917
 -0.0000000000000000 -0.0000000000000000  0.1478950169166084
  0.6666666666666666  0.3333333333333334  0.6854383164167250
  0.6666666666666666  0.3333333333333334  0.4812283502499418
  0.3333333333333334  0.6666666666666670  0.0187716497500583
  0.3333333333333335  0.6666666666666669  0.8145616835832751
  0.0000000000000000  0.0000000000000000  0.6478950169166083
  0.0000000000000001 -0.0000000000000001  0.8521049830833913
  0.6666666666666667  0.3333333333333335  0.9812283502499418
  0.6666666666666666  0.3333333333333334  0.1854383164167249
  0.3333333333333335  0.6666666666666671  0.3145616835832750
  0.3333333333333335  0.6666666666666669  0.5187716497500584
  0.3063669267253714 -0.0000000000000000  0.2500000000000001
  0.0000000000000000  0.3063669267253715  0.2500000000000001
  0.6936330732746291  0.6936330732746291  0.2500000000000001
  0.9730335933920383  0.3333333333333334  0.5833333333333335
  0.6666666666666670  0.6397002600587047  0.5833333333333335
  0.3602997399412953  0.0269664066079620  0.5833333333333335
  0.6397002600587053  0.6666666666666669  0.9166666666666669
  0.3333333333333334  0.9730335933920380  0.9166666666666669
  0.0269664066079622  0.3602997399412954  0.9166666666666669
  0.6936330732746286 -0.0000000000000001  0.7499999999999999
  0.0000000000000004  0.6936330732746290  0.7500000000000000
  0.3063669267253715  0.3063669267253714  0.7500000000000000
  0.3602997399412954  0.3333333333333334  0.0833333333333334
  0.6666666666666666  0.0269664066079620  0.0833333333333334
  0.9730335933920382  0.6397002600587050  0.0833333333333334
  0.0269664066079622  0.6666666666666669  0.4166666666666666
  0.3333333333333335  0.3602997399412954  0.4166666666666666
  0.6397002600587048  0.9730335933920382  0.4166666666666666
