Na F  Na F  Na F  Na F 
 1.0000000000000000
     4.5700000000000003    0.0000000000000000    0.0000000000000000
     0.0000000000000000    4.5700000000000003    0.0000000000000000
     0.0000000000000000    0.0000000000000000    4.5700000000000003
 Na  F   Na  F   Na  F   Na  F  
   1   1   1   1   1   1   1   1
Direct
  0.0000000000000000  0.0000000000000000  0.0000000000000000
  0.5000000000000000  0.0000000000000000  0.0000000000000000
  0.0000000000000000  0.5000000000000000  0.5000000000000000
  0.5000000000000000  0.5000000000000000  0.5000000000000000
  0.5000000000000000  0.0000000000000000  0.5000000000000000
  0.0000000000000000  0.0000000000000000  0.5000000000000000
  0.5000000000000000  0.5000000000000000  0.0000000000000000
  0.0000000000000000  0.5000000000000000  0.0000000000000000
