Si
 1.0000000000000000
     5.4554845434608579   -0.0000000000000000    0.0000000000000000
     0.0000000000000000    5.4554845434608579   -0.0000000000000000
    -0.0000000000000000    0.0000000000000000    5.4554845434608579
 Si 
   8
Direct
 -0.0000000000000000 -0.0000000000000000 -0.0000000000000000
  0.2500000000000000  0.2500000000000000  0.2500000000000000
 -0.0000000000000000  0.5000000000000000  0.5000000000000000
  0.2500000000000000  0.7500000000000001  0.7500000000000001
  0.5000000000000000 -0.0000000000000000  0.5000000000000000
  0.7500000000000001  0.2500000000000000  0.7500000000000001
  0.5000000000000000  0.5000000000000000  0.0000000000000000
  0.7500000000000001  0.7500000000000001  0.2500000000000000
