Na F  Na F  Na F  Na F 
 1.0000000000000000
     4.6743631367832110   -0.0000000000000000    0.0000000000000000
     0.0000000000000000    4.6743631367832110   -0.0000000000000000
    -0.0000000000000000   -0.0000000000000000    4.6743631367832110
 Na  F   Na  F   Na  F   Na  F  
   1   1   1   1   1   1   1   1
Direct
  0.0000000000000000  0.0000000000000000  0.0000000000000000
  0.4999999999999999 -0.0000000000000000  0.0000000000000000
 -0.0000000000000000  0.4999999999999999  0.4999999999999999
  0.4999999999999999  0.4999999999999999  0.4999999999999999
  0.4999999999999999 -0.0000000000000000  0.4999999999999999
 -0.0000000000000000 -0.0000000000000000  0.4999999999999999
  0.4999999999999999  0.4999999999999999 -0.0000000000000000
  0.0000000000000000  0.4999999999999999 -0.0000000000000000
